(set-logic QF_FP)
(set-option :produce-models true)
(set-info :source |Random FP created by PyMPF|)
(set-info :category random)
(set-info :status sat)
(declare-const x Float32)
(assert (= x ((_ to_fp 8 24) #x801CEFDA)))
(declare-const y Float32)
(assert (= y (fp #b0 #b11111111 #b00010010001010011110011)))
(declare-const result Float32)
(assert (= result (fp.sub RTN x y)))
(assert (= result (_ NaN 8 24)))
(check-sat)
(exit)
